p cnf 536 2365
-1 321 0
-2 322 0
-321 322 0
-321 -2 0
-3 323 0
-322 323 0
-322 -3 0
-4 324 0
-323 324 0
-323 -4 0
-324 -5 0
-1 41 0
-1 6 0
-2 42 0
-2 7 0
-3 43 0
-3 8 0
-4 44 0
-4 9 0
-5 45 0
-5 10 0
-6 325 0
-7 326 0
-325 326 0
-325 -7 0
-8 327 0
-326 327 0
-326 -8 0
-9 328 0
-327 328 0
-327 -9 0
-328 -10 0
-6 1 11 0
-6 1 46 0
-6 11 46 0
-7 2 12 0
-7 2 47 0
-7 12 47 0
-8 3 13 0
-8 3 48 0
-8 13 48 0
-9 4 14 0
-9 4 49 0
-9 14 49 0
-10 5 15 0
-10 5 50 0
-10 15 50 0
-6 -1 -11 -46 0
-7 -2 -12 -47 0
-8 -3 -13 -48 0
-9 -4 -14 -49 0
-10 -5 -15 -50 0
-11 329 0
-12 330 0
-329 330 0
-329 -12 0
-13 331 0
-330 331 0
-330 -13 0
-14 332 0
-331 332 0
-331 -14 0
-332 -15 0
-11 6 16 0
-11 6 51 0
-11 16 51 0
-12 7 17 0
-12 7 52 0
-12 17 52 0
-13 8 18 0
-13 8 53 0
-13 18 53 0
-14 9 19 0
-14 9 54 0
-14 19 54 0
-15 10 20 0
-15 10 55 0
-15 20 55 0
-11 -6 -16 -51 0
-12 -7 -17 -52 0
-13 -8 -18 -53 0
-14 -9 -19 -54 0
-15 -10 -20 -55 0
-16 333 0
-17 334 0
-333 334 0
-333 -17 0
-18 335 0
-334 335 0
-334 -18 0
-19 336 0
-335 336 0
-335 -19 0
-336 -20 0
-16 11 21 0
-16 11 56 0
-16 21 56 0
-17 12 22 0
-17 12 57 0
-17 22 57 0
-18 13 23 0
-18 13 58 0
-18 23 58 0
-19 14 24 0
-19 14 59 0
-19 24 59 0
-20 15 25 0
-20 15 60 0
-20 25 60 0
-16 -11 -21 -56 0
-17 -12 -22 -57 0
-18 -13 -23 -58 0
-19 -14 -24 -59 0
-20 -15 -25 -60 0
-21 337 0
-22 338 0
-337 338 0
-337 -22 0
-23 339 0
-338 339 0
-338 -23 0
-24 340 0
-339 340 0
-339 -24 0
-340 -25 0
-21 16 26 0
-21 16 61 0
-21 26 61 0
-22 17 27 0
-22 17 62 0
-22 27 62 0
-23 18 28 0
-23 18 63 0
-23 28 63 0
-24 19 29 0
-24 19 64 0
-24 29 64 0
-25 20 30 0
-25 20 65 0
-25 30 65 0
-21 -16 -26 -61 0
-22 -17 -27 -62 0
-23 -18 -28 -63 0
-24 -19 -29 -64 0
-25 -20 -30 -65 0
-26 341 0
-27 342 0
-341 342 0
-341 -27 0
-28 343 0
-342 343 0
-342 -28 0
-29 344 0
-343 344 0
-343 -29 0
-344 -30 0
-26 21 31 0
-26 21 66 0
-26 31 66 0
-27 22 32 0
-27 22 67 0
-27 32 67 0
-28 23 33 0
-28 23 68 0
-28 33 68 0
-29 24 34 0
-29 24 69 0
-29 34 69 0
-30 25 35 0
-30 25 70 0
-30 35 70 0
-26 -21 -31 -66 0
-27 -22 -32 -67 0
-28 -23 -33 -68 0
-29 -24 -34 -69 0
-30 -25 -35 -70 0
-31 345 0
-32 346 0
-345 346 0
-345 -32 0
-33 347 0
-346 347 0
-346 -33 0
-34 348 0
-347 348 0
-347 -34 0
-348 -35 0
-31 26 36 0
-31 26 71 0
-31 36 71 0
-32 27 37 0
-32 27 72 0
-32 37 72 0
-33 28 38 0
-33 28 73 0
-33 38 73 0
-34 29 39 0
-34 29 74 0
-34 39 74 0
-35 30 40 0
-35 30 75 0
-35 40 75 0
-31 -26 -36 -71 0
-32 -27 -37 -72 0
-33 -28 -38 -73 0
-34 -29 -39 -74 0
-35 -30 -40 -75 0
-36 349 0
-37 350 0
-349 350 0
-349 -37 0
-38 351 0
-350 351 0
-350 -38 0
-39 352 0
-351 352 0
-351 -39 0
-352 -40 0
-36 76 0
-36 31 0
-37 77 0
-37 32 0
-38 78 0
-38 33 0
-39 79 0
-39 34 0
-40 80 0
-40 35 0
-42 0
-43 0
-44 0
-45 0
41 0
81 46 1 0
-81 -46 0
-81 -1 0
-46 -1 0
-46 353 0
-47 354 0
-353 354 0
-353 -47 0
-48 355 0
-354 355 0
-354 -48 0
-49 356 0
-355 356 0
-355 -49 0
-356 -50 0
-46 86 51 6 0
-46 86 51 41 0
-46 86 6 41 0
-46 51 6 41 0
-47 87 52 7 0
-47 87 52 42 0
-47 87 7 42 0
-47 52 7 42 0
-48 88 53 8 0
-48 88 53 43 0
-48 88 8 43 0
-48 53 8 43 0
-49 89 54 9 0
-49 89 54 44 0
-49 89 9 44 0
-49 54 9 44 0
-50 90 55 10 0
-50 90 55 45 0
-50 90 10 45 0
-50 55 10 45 0
-46 -86 -51 -6 0
-46 -86 -51 -41 0
-46 -86 -6 -41 0
-46 -51 -6 -41 0
-47 -87 -52 -7 0
-47 -87 -52 -42 0
-47 -87 -7 -42 0
-47 -52 -7 -42 0
-48 -88 -53 -8 0
-48 -88 -53 -43 0
-48 -88 -8 -43 0
-48 -53 -8 -43 0
-49 -89 -54 -9 0
-49 -89 -54 -44 0
-49 -89 -9 -44 0
-49 -54 -9 -44 0
-50 -90 -55 -10 0
-50 -90 -55 -45 0
-50 -90 -10 -45 0
-50 -55 -10 -45 0
-51 357 0
-52 358 0
-357 358 0
-357 -52 0
-53 359 0
-358 359 0
-358 -53 0
-54 360 0
-359 360 0
-359 -54 0
-360 -55 0
-51 91 56 11 0
-51 91 56 46 0
-51 91 11 46 0
-51 56 11 46 0
-52 92 57 12 0
-52 92 57 47 0
-52 92 12 47 0
-52 57 12 47 0
-53 93 58 13 0
-53 93 58 48 0
-53 93 13 48 0
-53 58 13 48 0
-54 94 59 14 0
-54 94 59 49 0
-54 94 14 49 0
-54 59 14 49 0
-55 95 60 15 0
-55 95 60 50 0
-55 95 15 50 0
-55 60 15 50 0
-51 -91 -56 -11 0
-51 -91 -56 -46 0
-51 -91 -11 -46 0
-51 -56 -11 -46 0
-52 -92 -57 -12 0
-52 -92 -57 -47 0
-52 -92 -12 -47 0
-52 -57 -12 -47 0
-53 -93 -58 -13 0
-53 -93 -58 -48 0
-53 -93 -13 -48 0
-53 -58 -13 -48 0
-54 -94 -59 -14 0
-54 -94 -59 -49 0
-54 -94 -14 -49 0
-54 -59 -14 -49 0
-55 -95 -60 -15 0
-55 -95 -60 -50 0
-55 -95 -15 -50 0
-55 -60 -15 -50 0
-56 361 0
-57 362 0
-361 362 0
-361 -57 0
-58 363 0
-362 363 0
-362 -58 0
-59 364 0
-363 364 0
-363 -59 0
-364 -60 0
-56 96 61 16 0
-56 96 61 51 0
-56 96 16 51 0
-56 61 16 51 0
-57 97 62 17 0
-57 97 62 52 0
-57 97 17 52 0
-57 62 17 52 0
-58 98 63 18 0
-58 98 63 53 0
-58 98 18 53 0
-58 63 18 53 0
-59 99 64 19 0
-59 99 64 54 0
-59 99 19 54 0
-59 64 19 54 0
-60 100 65 20 0
-60 100 65 55 0
-60 100 20 55 0
-60 65 20 55 0
-56 -96 -61 -16 0
-56 -96 -61 -51 0
-56 -96 -16 -51 0
-56 -61 -16 -51 0
-57 -97 -62 -17 0
-57 -97 -62 -52 0
-57 -97 -17 -52 0
-57 -62 -17 -52 0
-58 -98 -63 -18 0
-58 -98 -63 -53 0
-58 -98 -18 -53 0
-58 -63 -18 -53 0
-59 -99 -64 -19 0
-59 -99 -64 -54 0
-59 -99 -19 -54 0
-59 -64 -19 -54 0
-60 -100 -65 -20 0
-60 -100 -65 -55 0
-60 -100 -20 -55 0
-60 -65 -20 -55 0
-61 365 0
-62 366 0
-365 366 0
-365 -62 0
-63 367 0
-366 367 0
-366 -63 0
-64 368 0
-367 368 0
-367 -64 0
-368 -65 0
-61 101 66 21 0
-61 101 66 56 0
-61 101 21 56 0
-61 66 21 56 0
-62 102 67 22 0
-62 102 67 57 0
-62 102 22 57 0
-62 67 22 57 0
-63 103 68 23 0
-63 103 68 58 0
-63 103 23 58 0
-63 68 23 58 0
-64 104 69 24 0
-64 104 69 59 0
-64 104 24 59 0
-64 69 24 59 0
-65 105 70 25 0
-65 105 70 60 0
-65 105 25 60 0
-65 70 25 60 0
-61 -101 -66 -21 0
-61 -101 -66 -56 0
-61 -101 -21 -56 0
-61 -66 -21 -56 0
-62 -102 -67 -22 0
-62 -102 -67 -57 0
-62 -102 -22 -57 0
-62 -67 -22 -57 0
-63 -103 -68 -23 0
-63 -103 -68 -58 0
-63 -103 -23 -58 0
-63 -68 -23 -58 0
-64 -104 -69 -24 0
-64 -104 -69 -59 0
-64 -104 -24 -59 0
-64 -69 -24 -59 0
-65 -105 -70 -25 0
-65 -105 -70 -60 0
-65 -105 -25 -60 0
-65 -70 -25 -60 0
-66 369 0
-67 370 0
-369 370 0
-369 -67 0
-68 371 0
-370 371 0
-370 -68 0
-69 372 0
-371 372 0
-371 -69 0
-372 -70 0
-66 106 71 26 0
-66 106 71 61 0
-66 106 26 61 0
-66 71 26 61 0
-67 107 72 27 0
-67 107 72 62 0
-67 107 27 62 0
-67 72 27 62 0
-68 108 73 28 0
-68 108 73 63 0
-68 108 28 63 0
-68 73 28 63 0
-69 109 74 29 0
-69 109 74 64 0
-69 109 29 64 0
-69 74 29 64 0
-70 110 75 30 0
-70 110 75 65 0
-70 110 30 65 0
-70 75 30 65 0
-66 -106 -71 -26 0
-66 -106 -71 -61 0
-66 -106 -26 -61 0
-66 -71 -26 -61 0
-67 -107 -72 -27 0
-67 -107 -72 -62 0
-67 -107 -27 -62 0
-67 -72 -27 -62 0
-68 -108 -73 -28 0
-68 -108 -73 -63 0
-68 -108 -28 -63 0
-68 -73 -28 -63 0
-69 -109 -74 -29 0
-69 -109 -74 -64 0
-69 -109 -29 -64 0
-69 -74 -29 -64 0
-70 -110 -75 -30 0
-70 -110 -75 -65 0
-70 -110 -30 -65 0
-70 -75 -30 -65 0
-71 373 0
-72 374 0
-373 374 0
-373 -72 0
-73 375 0
-374 375 0
-374 -73 0
-74 376 0
-375 376 0
-375 -74 0
-376 -75 0
-71 111 76 31 0
-71 111 76 66 0
-71 111 31 66 0
-71 76 31 66 0
-72 112 77 32 0
-72 112 77 67 0
-72 112 32 67 0
-72 77 32 67 0
-73 113 78 33 0
-73 113 78 68 0
-73 113 33 68 0
-73 78 33 68 0
-74 114 79 34 0
-74 114 79 69 0
-74 114 34 69 0
-74 79 34 69 0
-75 115 80 35 0
-75 115 80 70 0
-75 115 35 70 0
-75 80 35 70 0
-71 -111 -76 -31 0
-71 -111 -76 -66 0
-71 -111 -31 -66 0
-71 -76 -31 -66 0
-72 -112 -77 -32 0
-72 -112 -77 -67 0
-72 -112 -32 -67 0
-72 -77 -32 -67 0
-73 -113 -78 -33 0
-73 -113 -78 -68 0
-73 -113 -33 -68 0
-73 -78 -33 -68 0
-74 -114 -79 -34 0
-74 -114 -79 -69 0
-74 -114 -34 -69 0
-74 -79 -34 -69 0
-75 -115 -80 -35 0
-75 -115 -80 -70 0
-75 -115 -35 -70 0
-75 -80 -35 -70 0
-76 377 0
-77 378 0
-377 378 0
-377 -77 0
-78 379 0
-378 379 0
-378 -78 0
-79 380 0
-379 380 0
-379 -79 0
-380 -80 0
-76 116 71 0
-76 116 36 0
-76 71 36 0
-77 117 72 0
-77 117 37 0
-77 72 37 0
-78 118 73 0
-78 118 38 0
-78 73 38 0
-79 119 74 0
-79 119 39 0
-79 74 39 0
-80 120 75 0
-80 120 40 0
-80 75 40 0
-76 -116 -71 -36 0
-77 -117 -72 -37 0
-78 -118 -73 -38 0
-79 -119 -74 -39 0
-80 -120 -75 -40 0
-81 381 0
-82 382 0
-381 382 0
-381 -82 0
-83 383 0
-382 383 0
-382 -83 0
-84 384 0
-383 384 0
-383 -84 0
-384 -85 0
-81 121 86 0
-81 121 41 0
-81 86 41 0
-82 122 87 0
-82 122 42 0
-82 87 42 0
-83 123 88 0
-83 123 43 0
-83 88 43 0
-84 124 89 0
-84 124 44 0
-84 89 44 0
-85 125 90 0
-85 125 45 0
-85 90 45 0
-81 -121 -86 -41 0
-82 -122 -87 -42 0
-83 -123 -88 -43 0
-84 -124 -89 -44 0
-85 -125 -90 -45 0
-86 385 0
-87 386 0
-385 386 0
-385 -87 0
-88 387 0
-386 387 0
-386 -88 0
-89 388 0
-387 388 0
-387 -89 0
-388 -90 0
-86 126 91 46 0
-86 126 91 81 0
-86 126 46 81 0
-86 91 46 81 0
-87 127 92 47 0
-87 127 92 82 0
-87 127 47 82 0
-87 92 47 82 0
-88 128 93 48 0
-88 128 93 83 0
-88 128 48 83 0
-88 93 48 83 0
-89 129 94 49 0
-89 129 94 84 0
-89 129 49 84 0
-89 94 49 84 0
-90 130 95 50 0
-90 130 95 85 0
-90 130 50 85 0
-90 95 50 85 0
-86 -126 -91 -46 0
-86 -126 -91 -81 0
-86 -126 -46 -81 0
-86 -91 -46 -81 0
-87 -127 -92 -47 0
-87 -127 -92 -82 0
-87 -127 -47 -82 0
-87 -92 -47 -82 0
-88 -128 -93 -48 0
-88 -128 -93 -83 0
-88 -128 -48 -83 0
-88 -93 -48 -83 0
-89 -129 -94 -49 0
-89 -129 -94 -84 0
-89 -129 -49 -84 0
-89 -94 -49 -84 0
-90 -130 -95 -50 0
-90 -130 -95 -85 0
-90 -130 -50 -85 0
-90 -95 -50 -85 0
-91 389 0
-92 390 0
-389 390 0
-389 -92 0
-93 391 0
-390 391 0
-390 -93 0
-94 392 0
-391 392 0
-391 -94 0
-392 -95 0
-91 131 96 51 0
-91 131 96 86 0
-91 131 51 86 0
-91 96 51 86 0
-92 132 97 52 0
-92 132 97 87 0
-92 132 52 87 0
-92 97 52 87 0
-93 133 98 53 0
-93 133 98 88 0
-93 133 53 88 0
-93 98 53 88 0
-94 134 99 54 0
-94 134 99 89 0
-94 134 54 89 0
-94 99 54 89 0
-95 135 100 55 0
-95 135 100 90 0
-95 135 55 90 0
-95 100 55 90 0
-91 -131 -96 -51 0
-91 -131 -96 -86 0
-91 -131 -51 -86 0
-91 -96 -51 -86 0
-92 -132 -97 -52 0
-92 -132 -97 -87 0
-92 -132 -52 -87 0
-92 -97 -52 -87 0
-93 -133 -98 -53 0
-93 -133 -98 -88 0
-93 -133 -53 -88 0
-93 -98 -53 -88 0
-94 -134 -99 -54 0
-94 -134 -99 -89 0
-94 -134 -54 -89 0
-94 -99 -54 -89 0
-95 -135 -100 -55 0
-95 -135 -100 -90 0
-95 -135 -55 -90 0
-95 -100 -55 -90 0
-96 393 0
-97 394 0
-393 394 0
-393 -97 0
-98 395 0
-394 395 0
-394 -98 0
-99 396 0
-395 396 0
-395 -99 0
-396 -100 0
-96 136 101 56 0
-96 136 101 91 0
-96 136 56 91 0
-96 101 56 91 0
-97 137 102 57 0
-97 137 102 92 0
-97 137 57 92 0
-97 102 57 92 0
-98 138 103 58 0
-98 138 103 93 0
-98 138 58 93 0
-98 103 58 93 0
-99 139 104 59 0
-99 139 104 94 0
-99 139 59 94 0
-99 104 59 94 0
-100 140 105 60 0
-100 140 105 95 0
-100 140 60 95 0
-100 105 60 95 0
-96 -136 -101 -56 0
-96 -136 -101 -91 0
-96 -136 -56 -91 0
-96 -101 -56 -91 0
-97 -137 -102 -57 0
-97 -137 -102 -92 0
-97 -137 -57 -92 0
-97 -102 -57 -92 0
-98 -138 -103 -58 0
-98 -138 -103 -93 0
-98 -138 -58 -93 0
-98 -103 -58 -93 0
-99 -139 -104 -59 0
-99 -139 -104 -94 0
-99 -139 -59 -94 0
-99 -104 -59 -94 0
-100 -140 -105 -60 0
-100 -140 -105 -95 0
-100 -140 -60 -95 0
-100 -105 -60 -95 0
-101 397 0
-102 398 0
-397 398 0
-397 -102 0
-103 399 0
-398 399 0
-398 -103 0
-104 400 0
-399 400 0
-399 -104 0
-400 -105 0
-101 141 106 61 0
-101 141 106 96 0
-101 141 61 96 0
-101 106 61 96 0
-102 142 107 62 0
-102 142 107 97 0
-102 142 62 97 0
-102 107 62 97 0
-103 143 108 63 0
-103 143 108 98 0
-103 143 63 98 0
-103 108 63 98 0
-104 144 109 64 0
-104 144 109 99 0
-104 144 64 99 0
-104 109 64 99 0
-105 145 110 65 0
-105 145 110 100 0
-105 145 65 100 0
-105 110 65 100 0
-101 -141 -106 -61 0
-101 -141 -106 -96 0
-101 -141 -61 -96 0
-101 -106 -61 -96 0
-102 -142 -107 -62 0
-102 -142 -107 -97 0
-102 -142 -62 -97 0
-102 -107 -62 -97 0
-103 -143 -108 -63 0
-103 -143 -108 -98 0
-103 -143 -63 -98 0
-103 -108 -63 -98 0
-104 -144 -109 -64 0
-104 -144 -109 -99 0
-104 -144 -64 -99 0
-104 -109 -64 -99 0
-105 -145 -110 -65 0
-105 -145 -110 -100 0
-105 -145 -65 -100 0
-105 -110 -65 -100 0
-106 401 0
-107 402 0
-401 402 0
-401 -107 0
-108 403 0
-402 403 0
-402 -108 0
-109 404 0
-403 404 0
-403 -109 0
-404 -110 0
-106 146 111 66 0
-106 146 111 101 0
-106 146 66 101 0
-106 111 66 101 0
-107 147 112 67 0
-107 147 112 102 0
-107 147 67 102 0
-107 112 67 102 0
-108 148 113 68 0
-108 148 113 103 0
-108 148 68 103 0
-108 113 68 103 0
-109 149 114 69 0
-109 149 114 104 0
-109 149 69 104 0
-109 114 69 104 0
-110 150 115 70 0
-110 150 115 105 0
-110 150 70 105 0
-110 115 70 105 0
-106 -146 -111 -66 0
-106 -146 -111 -101 0
-106 -146 -66 -101 0
-106 -111 -66 -101 0
-107 -147 -112 -67 0
-107 -147 -112 -102 0
-107 -147 -67 -102 0
-107 -112 -67 -102 0
-108 -148 -113 -68 0
-108 -148 -113 -103 0
-108 -148 -68 -103 0
-108 -113 -68 -103 0
-109 -149 -114 -69 0
-109 -149 -114 -104 0
-109 -149 -69 -104 0
-109 -114 -69 -104 0
-110 -150 -115 -70 0
-110 -150 -115 -105 0
-110 -150 -70 -105 0
-110 -115 -70 -105 0
-111 405 0
-112 406 0
-405 406 0
-405 -112 0
-113 407 0
-406 407 0
-406 -113 0
-114 408 0
-407 408 0
-407 -114 0
-408 -115 0
-111 151 116 71 0
-111 151 116 106 0
-111 151 71 106 0
-111 116 71 106 0
-112 152 117 72 0
-112 152 117 107 0
-112 152 72 107 0
-112 117 72 107 0
-113 153 118 73 0
-113 153 118 108 0
-113 153 73 108 0
-113 118 73 108 0
-114 154 119 74 0
-114 154 119 109 0
-114 154 74 109 0
-114 119 74 109 0
-115 155 120 75 0
-115 155 120 110 0
-115 155 75 110 0
-115 120 75 110 0
-111 -151 -116 -71 0
-111 -151 -116 -106 0
-111 -151 -71 -106 0
-111 -116 -71 -106 0
-112 -152 -117 -72 0
-112 -152 -117 -107 0
-112 -152 -72 -107 0
-112 -117 -72 -107 0
-113 -153 -118 -73 0
-113 -153 -118 -108 0
-113 -153 -73 -108 0
-113 -118 -73 -108 0
-114 -154 -119 -74 0
-114 -154 -119 -109 0
-114 -154 -74 -109 0
-114 -119 -74 -109 0
-115 -155 -120 -75 0
-115 -155 -120 -110 0
-115 -155 -75 -110 0
-115 -120 -75 -110 0
-116 409 0
-117 410 0
-409 410 0
-409 -117 0
-118 411 0
-410 411 0
-410 -118 0
-119 412 0
-411 412 0
-411 -119 0
-412 -120 0
-116 156 111 0
-116 156 76 0
-116 111 76 0
-117 157 112 0
-117 157 77 0
-117 112 77 0
-118 158 113 0
-118 158 78 0
-118 113 78 0
-119 159 114 0
-119 159 79 0
-119 114 79 0
-120 160 115 0
-120 160 80 0
-120 115 80 0
-116 -156 -111 -76 0
-117 -157 -112 -77 0
-118 -158 -113 -78 0
-119 -159 -114 -79 0
-120 -160 -115 -80 0
-121 413 0
-122 414 0
-413 414 0
-413 -122 0
-123 415 0
-414 415 0
-414 -123 0
-124 416 0
-415 416 0
-415 -124 0
-416 -125 0
-121 161 126 0
-121 161 81 0
-121 126 81 0
-122 162 127 0
-122 162 82 0
-122 127 82 0
-123 163 128 0
-123 163 83 0
-123 128 83 0
-124 164 129 0
-124 164 84 0
-124 129 84 0
-125 165 130 0
-125 165 85 0
-125 130 85 0
-121 -161 -126 -81 0
-122 -162 -127 -82 0
-123 -163 -128 -83 0
-124 -164 -129 -84 0
-125 -165 -130 -85 0
-126 417 0
-127 418 0
-417 418 0
-417 -127 0
-128 419 0
-418 419 0
-418 -128 0
-129 420 0
-419 420 0
-419 -129 0
-420 -130 0
-126 166 131 86 0
-126 166 131 121 0
-126 166 86 121 0
-126 131 86 121 0
-127 167 132 87 0
-127 167 132 122 0
-127 167 87 122 0
-127 132 87 122 0
-128 168 133 88 0
-128 168 133 123 0
-128 168 88 123 0
-128 133 88 123 0
-129 169 134 89 0
-129 169 134 124 0
-129 169 89 124 0
-129 134 89 124 0
-130 170 135 90 0
-130 170 135 125 0
-130 170 90 125 0
-130 135 90 125 0
-126 -166 -131 -86 0
-126 -166 -131 -121 0
-126 -166 -86 -121 0
-126 -131 -86 -121 0
-127 -167 -132 -87 0
-127 -167 -132 -122 0
-127 -167 -87 -122 0
-127 -132 -87 -122 0
-128 -168 -133 -88 0
-128 -168 -133 -123 0
-128 -168 -88 -123 0
-128 -133 -88 -123 0
-129 -169 -134 -89 0
-129 -169 -134 -124 0
-129 -169 -89 -124 0
-129 -134 -89 -124 0
-130 -170 -135 -90 0
-130 -170 -135 -125 0
-130 -170 -90 -125 0
-130 -135 -90 -125 0
-131 421 0
-132 422 0
-421 422 0
-421 -132 0
-133 423 0
-422 423 0
-422 -133 0
-134 424 0
-423 424 0
-423 -134 0
-424 -135 0
-131 171 136 91 0
-131 171 136 126 0
-131 171 91 126 0
-131 136 91 126 0
-132 172 137 92 0
-132 172 137 127 0
-132 172 92 127 0
-132 137 92 127 0
-133 173 138 93 0
-133 173 138 128 0
-133 173 93 128 0
-133 138 93 128 0
-134 174 139 94 0
-134 174 139 129 0
-134 174 94 129 0
-134 139 94 129 0
-135 175 140 95 0
-135 175 140 130 0
-135 175 95 130 0
-135 140 95 130 0
-131 -171 -136 -91 0
-131 -171 -136 -126 0
-131 -171 -91 -126 0
-131 -136 -91 -126 0
-132 -172 -137 -92 0
-132 -172 -137 -127 0
-132 -172 -92 -127 0
-132 -137 -92 -127 0
-133 -173 -138 -93 0
-133 -173 -138 -128 0
-133 -173 -93 -128 0
-133 -138 -93 -128 0
-134 -174 -139 -94 0
-134 -174 -139 -129 0
-134 -174 -94 -129 0
-134 -139 -94 -129 0
-135 -175 -140 -95 0
-135 -175 -140 -130 0
-135 -175 -95 -130 0
-135 -140 -95 -130 0
-136 0
-137 0
-139 0
-140 0
138 0
178 143 98 133 0
-178 -143 0
-178 -98 0
-178 -133 0
-143 -98 0
-143 -133 0
-98 -133 0
-141 425 0
-142 426 0
-425 426 0
-425 -142 0
-143 427 0
-426 427 0
-426 -143 0
-144 428 0
-427 428 0
-427 -144 0
-428 -145 0
-141 181 146 101 0
-141 181 146 136 0
-141 181 101 136 0
-141 146 101 136 0
-142 182 147 102 0
-142 182 147 137 0
-142 182 102 137 0
-142 147 102 137 0
-143 183 148 103 0
-143 183 148 138 0
-143 183 103 138 0
-143 148 103 138 0
-144 184 149 104 0
-144 184 149 139 0
-144 184 104 139 0
-144 149 104 139 0
-145 185 150 105 0
-145 185 150 140 0
-145 185 105 140 0
-145 150 105 140 0
-141 -181 -146 -101 0
-141 -181 -146 -136 0
-141 -181 -101 -136 0
-141 -146 -101 -136 0
-142 -182 -147 -102 0
-142 -182 -147 -137 0
-142 -182 -102 -137 0
-142 -147 -102 -137 0
-143 -183 -148 -103 0
-143 -183 -148 -138 0
-143 -183 -103 -138 0
-143 -148 -103 -138 0
-144 -184 -149 -104 0
-144 -184 -149 -139 0
-144 -184 -104 -139 0
-144 -149 -104 -139 0
-145 -185 -150 -105 0
-145 -185 -150 -140 0
-145 -185 -105 -140 0
-145 -150 -105 -140 0
-146 429 0
-147 430 0
-429 430 0
-429 -147 0
-148 431 0
-430 431 0
-430 -148 0
-149 432 0
-431 432 0
-431 -149 0
-432 -150 0
-146 186 151 106 0
-146 186 151 141 0
-146 186 106 141 0
-146 151 106 141 0
-147 187 152 107 0
-147 187 152 142 0
-147 187 107 142 0
-147 152 107 142 0
-148 188 153 108 0
-148 188 153 143 0
-148 188 108 143 0
-148 153 108 143 0
-149 189 154 109 0
-149 189 154 144 0
-149 189 109 144 0
-149 154 109 144 0
-150 190 155 110 0
-150 190 155 145 0
-150 190 110 145 0
-150 155 110 145 0
-146 -186 -151 -106 0
-146 -186 -151 -141 0
-146 -186 -106 -141 0
-146 -151 -106 -141 0
-147 -187 -152 -107 0
-147 -187 -152 -142 0
-147 -187 -107 -142 0
-147 -152 -107 -142 0
-148 -188 -153 -108 0
-148 -188 -153 -143 0
-148 -188 -108 -143 0
-148 -153 -108 -143 0
-149 -189 -154 -109 0
-149 -189 -154 -144 0
-149 -189 -109 -144 0
-149 -154 -109 -144 0
-150 -190 -155 -110 0
-150 -190 -155 -145 0
-150 -190 -110 -145 0
-150 -155 -110 -145 0
-151 433 0
-152 434 0
-433 434 0
-433 -152 0
-153 435 0
-434 435 0
-434 -153 0
-154 436 0
-435 436 0
-435 -154 0
-436 -155 0
-151 191 156 111 0
-151 191 156 146 0
-151 191 111 146 0
-151 156 111 146 0
-152 192 157 112 0
-152 192 157 147 0
-152 192 112 147 0
-152 157 112 147 0
-153 193 158 113 0
-153 193 158 148 0
-153 193 113 148 0
-153 158 113 148 0
-154 194 159 114 0
-154 194 159 149 0
-154 194 114 149 0
-154 159 114 149 0
-155 195 160 115 0
-155 195 160 150 0
-155 195 115 150 0
-155 160 115 150 0
-151 -191 -156 -111 0
-151 -191 -156 -146 0
-151 -191 -111 -146 0
-151 -156 -111 -146 0
-152 -192 -157 -112 0
-152 -192 -157 -147 0
-152 -192 -112 -147 0
-152 -157 -112 -147 0
-153 -193 -158 -113 0
-153 -193 -158 -148 0
-153 -193 -113 -148 0
-153 -158 -113 -148 0
-154 -194 -159 -114 0
-154 -194 -159 -149 0
-154 -194 -114 -149 0
-154 -159 -114 -149 0
-155 -195 -160 -115 0
-155 -195 -160 -150 0
-155 -195 -115 -150 0
-155 -160 -115 -150 0
-156 437 0
-157 438 0
-437 438 0
-437 -157 0
-158 439 0
-438 439 0
-438 -158 0
-159 440 0
-439 440 0
-439 -159 0
-440 -160 0
-156 196 151 0
-156 196 116 0
-156 151 116 0
-157 197 152 0
-157 197 117 0
-157 152 117 0
-158 198 153 0
-158 198 118 0
-158 153 118 0
-159 199 154 0
-159 199 119 0
-159 154 119 0
-160 200 155 0
-160 200 120 0
-160 155 120 0
-156 -196 -151 -116 0
-157 -197 -152 -117 0
-158 -198 -153 -118 0
-159 -199 -154 -119 0
-160 -200 -155 -120 0
-161 441 0
-162 442 0
-441 442 0
-441 -162 0
-163 443 0
-442 443 0
-442 -163 0
-164 444 0
-443 444 0
-443 -164 0
-444 -165 0
-161 201 166 0
-161 201 121 0
-161 166 121 0
-162 202 167 0
-162 202 122 0
-162 167 122 0
-163 203 168 0
-163 203 123 0
-163 168 123 0
-164 204 169 0
-164 204 124 0
-164 169 124 0
-165 205 170 0
-165 205 125 0
-165 170 125 0
-161 -201 -166 -121 0
-162 -202 -167 -122 0
-163 -203 -168 -123 0
-164 -204 -169 -124 0
-165 -205 -170 -125 0
-166 445 0
-167 446 0
-445 446 0
-445 -167 0
-168 447 0
-446 447 0
-446 -168 0
-169 448 0
-447 448 0
-447 -169 0
-448 -170 0
-166 206 171 126 0
-166 206 171 161 0
-166 206 126 161 0
-166 171 126 161 0
-167 207 172 127 0
-167 207 172 162 0
-167 207 127 162 0
-167 172 127 162 0
-168 208 173 128 0
-168 208 173 163 0
-168 208 128 163 0
-168 173 128 163 0
-169 209 174 129 0
-169 209 174 164 0
-169 209 129 164 0
-169 174 129 164 0
-170 210 175 130 0
-170 210 175 165 0
-170 210 130 165 0
-170 175 130 165 0
-166 -206 -171 -126 0
-166 -206 -171 -161 0
-166 -206 -126 -161 0
-166 -171 -126 -161 0
-167 -207 -172 -127 0
-167 -207 -172 -162 0
-167 -207 -127 -162 0
-167 -172 -127 -162 0
-168 -208 -173 -128 0
-168 -208 -173 -163 0
-168 -208 -128 -163 0
-168 -173 -128 -163 0
-169 -209 -174 -129 0
-169 -209 -174 -164 0
-169 -209 -129 -164 0
-169 -174 -129 -164 0
-170 -210 -175 -130 0
-170 -210 -175 -165 0
-170 -210 -130 -165 0
-170 -175 -130 -165 0
-171 0
-172 0
-173 0
-174 0
175 0
215 180 135 170 0
-215 -180 0
-215 -135 0
-215 -170 0
-180 -135 0
-180 -170 0
-135 -170 0
-176 0
-177 0
-178 0
-180 0
179 0
219 184 139 174 0
-219 -184 0
-219 -139 0
-219 -174 0
-184 -139 0
-184 -174 0
-139 -174 0
-181 449 0
-182 450 0
-449 450 0
-449 -182 0
-183 451 0
-450 451 0
-450 -183 0
-184 452 0
-451 452 0
-451 -184 0
-452 -185 0
-181 221 186 141 0
-181 221 186 176 0
-181 221 141 176 0
-181 186 141 176 0
-182 222 187 142 0
-182 222 187 177 0
-182 222 142 177 0
-182 187 142 177 0
-183 223 188 143 0
-183 223 188 178 0
-183 223 143 178 0
-183 188 143 178 0
-184 224 189 144 0
-184 224 189 179 0
-184 224 144 179 0
-184 189 144 179 0
-185 225 190 145 0
-185 225 190 180 0
-185 225 145 180 0
-185 190 145 180 0
-181 -221 -186 -141 0
-181 -221 -186 -176 0
-181 -221 -141 -176 0
-181 -186 -141 -176 0
-182 -222 -187 -142 0
-182 -222 -187 -177 0
-182 -222 -142 -177 0
-182 -187 -142 -177 0
-183 -223 -188 -143 0
-183 -223 -188 -178 0
-183 -223 -143 -178 0
-183 -188 -143 -178 0
-184 -224 -189 -144 0
-184 -224 -189 -179 0
-184 -224 -144 -179 0
-184 -189 -144 -179 0
-185 -225 -190 -145 0
-185 -225 -190 -180 0
-185 -225 -145 -180 0
-185 -190 -145 -180 0
-186 0
-188 0
-189 0
-190 0
187 0
227 192 147 182 0
-227 -192 0
-227 -147 0
-227 -182 0
-192 -147 0
-192 -182 0
-147 -182 0
-191 453 0
-192 454 0
-453 454 0
-453 -192 0
-193 455 0
-454 455 0
-454 -193 0
-194 456 0
-455 456 0
-455 -194 0
-456 -195 0
-191 231 196 151 0
-191 231 196 186 0
-191 231 151 186 0
-191 196 151 186 0
-192 232 197 152 0
-192 232 197 187 0
-192 232 152 187 0
-192 197 152 187 0
-193 233 198 153 0
-193 233 198 188 0
-193 233 153 188 0
-193 198 153 188 0
-194 234 199 154 0
-194 234 199 189 0
-194 234 154 189 0
-194 199 154 189 0
-195 235 200 155 0
-195 235 200 190 0
-195 235 155 190 0
-195 200 155 190 0
-191 -231 -196 -151 0
-191 -231 -196 -186 0
-191 -231 -151 -186 0
-191 -196 -151 -186 0
-192 -232 -197 -152 0
-192 -232 -197 -187 0
-192 -232 -152 -187 0
-192 -197 -152 -187 0
-193 -233 -198 -153 0
-193 -233 -198 -188 0
-193 -233 -153 -188 0
-193 -198 -153 -188 0
-194 -234 -199 -154 0
-194 -234 -199 -189 0
-194 -234 -154 -189 0
-194 -199 -154 -189 0
-195 -235 -200 -155 0
-195 -235 -200 -190 0
-195 -235 -155 -190 0
-195 -200 -155 -190 0
-196 457 0
-197 458 0
-457 458 0
-457 -197 0
-198 459 0
-458 459 0
-458 -198 0
-199 460 0
-459 460 0
-459 -199 0
-460 -200 0
-196 236 191 0
-196 236 156 0
-196 191 156 0
-197 237 192 0
-197 237 157 0
-197 192 157 0
-198 238 193 0
-198 238 158 0
-198 193 158 0
-199 239 194 0
-199 239 159 0
-199 194 159 0
-200 240 195 0
-200 240 160 0
-200 195 160 0
-196 -236 -191 -156 0
-197 -237 -192 -157 0
-198 -238 -193 -158 0
-199 -239 -194 -159 0
-200 -240 -195 -160 0
-201 0
-202 0
-203 0
-205 0
204 0
244 209 164 0
-244 -209 0
-244 -164 0
-209 -164 0
-206 461 0
-207 462 0
-461 462 0
-461 -207 0
-208 463 0
-462 463 0
-462 -208 0
-209 464 0
-463 464 0
-463 -209 0
-464 -210 0
-206 246 211 166 0
-206 246 211 201 0
-206 246 166 201 0
-206 211 166 201 0
-207 247 212 167 0
-207 247 212 202 0
-207 247 167 202 0
-207 212 167 202 0
-208 248 213 168 0
-208 248 213 203 0
-208 248 168 203 0
-208 213 168 203 0
-209 249 214 169 0
-209 249 214 204 0
-209 249 169 204 0
-209 214 169 204 0
-210 250 215 170 0
-210 250 215 205 0
-210 250 170 205 0
-210 215 170 205 0
-206 -246 -211 -166 0
-206 -246 -211 -201 0
-206 -246 -166 -201 0
-206 -211 -166 -201 0
-207 -247 -212 -167 0
-207 -247 -212 -202 0
-207 -247 -167 -202 0
-207 -212 -167 -202 0
-208 -248 -213 -168 0
-208 -248 -213 -203 0
-208 -248 -168 -203 0
-208 -213 -168 -203 0
-209 -249 -214 -169 0
-209 -249 -214 -204 0
-209 -249 -169 -204 0
-209 -214 -169 -204 0
-210 -250 -215 -170 0
-210 -250 -215 -205 0
-210 -250 -170 -205 0
-210 -215 -170 -205 0
-211 465 0
-212 466 0
-465 466 0
-465 -212 0
-213 467 0
-466 467 0
-466 -213 0
-214 468 0
-467 468 0
-467 -214 0
-468 -215 0
-211 251 216 171 0
-211 251 216 206 0
-211 251 171 206 0
-211 216 171 206 0
-212 252 217 172 0
-212 252 217 207 0
-212 252 172 207 0
-212 217 172 207 0
-213 253 218 173 0
-213 253 218 208 0
-213 253 173 208 0
-213 218 173 208 0
-214 254 219 174 0
-214 254 219 209 0
-214 254 174 209 0
-214 219 174 209 0
-215 255 220 175 0
-215 255 220 210 0
-215 255 175 210 0
-215 220 175 210 0
-211 -251 -216 -171 0
-211 -251 -216 -206 0
-211 -251 -171 -206 0
-211 -216 -171 -206 0
-212 -252 -217 -172 0
-212 -252 -217 -207 0
-212 -252 -172 -207 0
-212 -217 -172 -207 0
-213 -253 -218 -173 0
-213 -253 -218 -208 0
-213 -253 -173 -208 0
-213 -218 -173 -208 0
-214 -254 -219 -174 0
-214 -254 -219 -209 0
-214 -254 -174 -209 0
-214 -219 -174 -209 0
-215 -255 -220 -175 0
-215 -255 -220 -210 0
-215 -255 -175 -210 0
-215 -220 -175 -210 0
-216 469 0
-217 470 0
-469 470 0
-469 -217 0
-218 471 0
-470 471 0
-470 -218 0
-219 472 0
-471 472 0
-471 -219 0
-472 -220 0
-216 256 221 176 0
-216 256 221 211 0
-216 256 176 211 0
-216 221 176 211 0
-217 257 222 177 0
-217 257 222 212 0
-217 257 177 212 0
-217 222 177 212 0
-218 258 223 178 0
-218 258 223 213 0
-218 258 178 213 0
-218 223 178 213 0
-219 259 224 179 0
-219 259 224 214 0
-219 259 179 214 0
-219 224 179 214 0
-220 260 225 180 0
-220 260 225 215 0
-220 260 180 215 0
-220 225 180 215 0
-216 -256 -221 -176 0
-216 -256 -221 -211 0
-216 -256 -176 -211 0
-216 -221 -176 -211 0
-217 -257 -222 -177 0
-217 -257 -222 -212 0
-217 -257 -177 -212 0
-217 -222 -177 -212 0
-218 -258 -223 -178 0
-218 -258 -223 -213 0
-218 -258 -178 -213 0
-218 -223 -178 -213 0
-219 -259 -224 -179 0
-219 -259 -224 -214 0
-219 -259 -179 -214 0
-219 -224 -179 -214 0
-220 -260 -225 -180 0
-220 -260 -225 -215 0
-220 -260 -180 -215 0
-220 -225 -180 -215 0
-221 473 0
-222 474 0
-473 474 0
-473 -222 0
-223 475 0
-474 475 0
-474 -223 0
-224 476 0
-475 476 0
-475 -224 0
-476 -225 0
-221 261 226 181 0
-221 261 226 216 0
-221 261 181 216 0
-221 226 181 216 0
-222 262 227 182 0
-222 262 227 217 0
-222 262 182 217 0
-222 227 182 217 0
-223 263 228 183 0
-223 263 228 218 0
-223 263 183 218 0
-223 228 183 218 0
-224 264 229 184 0
-224 264 229 219 0
-224 264 184 219 0
-224 229 184 219 0
-225 265 230 185 0
-225 265 230 220 0
-225 265 185 220 0
-225 230 185 220 0
-221 -261 -226 -181 0
-221 -261 -226 -216 0
-221 -261 -181 -216 0
-221 -226 -181 -216 0
-222 -262 -227 -182 0
-222 -262 -227 -217 0
-222 -262 -182 -217 0
-222 -227 -182 -217 0
-223 -263 -228 -183 0
-223 -263 -228 -218 0
-223 -263 -183 -218 0
-223 -228 -183 -218 0
-224 -264 -229 -184 0
-224 -264 -229 -219 0
-224 -264 -184 -219 0
-224 -229 -184 -219 0
-225 -265 -230 -185 0
-225 -265 -230 -220 0
-225 -265 -185 -220 0
-225 -230 -185 -220 0
-226 0
-227 0
-229 0
-230 0
228 0
268 233 188 223 0
-268 -233 0
-268 -188 0
-268 -223 0
-233 -188 0
-233 -223 0
-188 -223 0
-231 477 0
-232 478 0
-477 478 0
-477 -232 0
-233 479 0
-478 479 0
-478 -233 0
-234 480 0
-479 480 0
-479 -234 0
-480 -235 0
-231 271 236 191 0
-231 271 236 226 0
-231 271 191 226 0
-231 236 191 226 0
-232 272 237 192 0
-232 272 237 227 0
-232 272 192 227 0
-232 237 192 227 0
-233 273 238 193 0
-233 273 238 228 0
-233 273 193 228 0
-233 238 193 228 0
-234 274 239 194 0
-234 274 239 229 0
-234 274 194 229 0
-234 239 194 229 0
-235 275 240 195 0
-235 275 240 230 0
-235 275 195 230 0
-235 240 195 230 0
-231 -271 -236 -191 0
-231 -271 -236 -226 0
-231 -271 -191 -226 0
-231 -236 -191 -226 0
-232 -272 -237 -192 0
-232 -272 -237 -227 0
-232 -272 -192 -227 0
-232 -237 -192 -227 0
-233 -273 -238 -193 0
-233 -273 -238 -228 0
-233 -273 -193 -228 0
-233 -238 -193 -228 0
-234 -274 -239 -194 0
-234 -274 -239 -229 0
-234 -274 -194 -229 0
-234 -239 -194 -229 0
-235 -275 -240 -195 0
-235 -275 -240 -230 0
-235 -275 -195 -230 0
-235 -240 -195 -230 0
-236 481 0
-237 482 0
-481 482 0
-481 -237 0
-238 483 0
-482 483 0
-482 -238 0
-239 484 0
-483 484 0
-483 -239 0
-484 -240 0
-236 276 231 0
-236 276 196 0
-236 231 196 0
-237 277 232 0
-237 277 197 0
-237 232 197 0
-238 278 233 0
-238 278 198 0
-238 233 198 0
-239 279 234 0
-239 279 199 0
-239 234 199 0
-240 280 235 0
-240 280 200 0
-240 235 200 0
-236 -276 -231 -196 0
-237 -277 -232 -197 0
-238 -278 -233 -198 0
-239 -279 -234 -199 0
-240 -280 -235 -200 0
-241 0
-243 0
-244 0
-245 0
242 0
282 247 202 0
-282 -247 0
-282 -202 0
-247 -202 0
-246 485 0
-247 486 0
-485 486 0
-485 -247 0
-248 487 0
-486 487 0
-486 -248 0
-249 488 0
-487 488 0
-487 -249 0
-488 -250 0
-246 286 251 206 0
-246 286 251 241 0
-246 286 206 241 0
-246 251 206 241 0
-247 287 252 207 0
-247 287 252 242 0
-247 287 207 242 0
-247 252 207 242 0
-248 288 253 208 0
-248 288 253 243 0
-248 288 208 243 0
-248 253 208 243 0
-249 289 254 209 0
-249 289 254 244 0
-249 289 209 244 0
-249 254 209 244 0
-250 290 255 210 0
-250 290 255 245 0
-250 290 210 245 0
-250 255 210 245 0
-246 -286 -251 -206 0
-246 -286 -251 -241 0
-246 -286 -206 -241 0
-246 -251 -206 -241 0
-247 -287 -252 -207 0
-247 -287 -252 -242 0
-247 -287 -207 -242 0
-247 -252 -207 -242 0
-248 -288 -253 -208 0
-248 -288 -253 -243 0
-248 -288 -208 -243 0
-248 -253 -208 -243 0
-249 -289 -254 -209 0
-249 -289 -254 -244 0
-249 -289 -209 -244 0
-249 -254 -209 -244 0
-250 -290 -255 -210 0
-250 -290 -255 -245 0
-250 -290 -210 -245 0
-250 -255 -210 -245 0
-251 0
-252 0
-253 0
-254 0
255 0
295 260 215 250 0
-295 -260 0
-295 -215 0
-295 -250 0
-260 -215 0
-260 -250 0
-215 -250 0
-256 489 0
-257 490 0
-489 490 0
-489 -257 0
-258 491 0
-490 491 0
-490 -258 0
-259 492 0
-491 492 0
-491 -259 0
-492 -260 0
-256 296 261 216 0
-256 296 261 251 0
-256 296 216 251 0
-256 261 216 251 0
-257 297 262 217 0
-257 297 262 252 0
-257 297 217 252 0
-257 262 217 252 0
-258 298 263 218 0
-258 298 263 253 0
-258 298 218 253 0
-258 263 218 253 0
-259 299 264 219 0
-259 299 264 254 0
-259 299 219 254 0
-259 264 219 254 0
-260 300 265 220 0
-260 300 265 255 0
-260 300 220 255 0
-260 265 220 255 0
-256 -296 -261 -216 0
-256 -296 -261 -251 0
-256 -296 -216 -251 0
-256 -261 -216 -251 0
-257 -297 -262 -217 0
-257 -297 -262 -252 0
-257 -297 -217 -252 0
-257 -262 -217 -252 0
-258 -298 -263 -218 0
-258 -298 -263 -253 0
-258 -298 -218 -253 0
-258 -263 -218 -253 0
-259 -299 -264 -219 0
-259 -299 -264 -254 0
-259 -299 -219 -254 0
-259 -264 -219 -254 0
-260 -300 -265 -220 0
-260 -300 -265 -255 0
-260 -300 -220 -255 0
-260 -265 -220 -255 0
-261 493 0
-262 494 0
-493 494 0
-493 -262 0
-263 495 0
-494 495 0
-494 -263 0
-264 496 0
-495 496 0
-495 -264 0
-496 -265 0
-261 301 266 221 0
-261 301 266 256 0
-261 301 221 256 0
-261 266 221 256 0
-262 302 267 222 0
-262 302 267 257 0
-262 302 222 257 0
-262 267 222 257 0
-263 303 268 223 0
-263 303 268 258 0
-263 303 223 258 0
-263 268 223 258 0
-264 304 269 224 0
-264 304 269 259 0
-264 304 224 259 0
-264 269 224 259 0
-265 305 270 225 0
-265 305 270 260 0
-265 305 225 260 0
-265 270 225 260 0
-261 -301 -266 -221 0
-261 -301 -266 -256 0
-261 -301 -221 -256 0
-261 -266 -221 -256 0
-262 -302 -267 -222 0
-262 -302 -267 -257 0
-262 -302 -222 -257 0
-262 -267 -222 -257 0
-263 -303 -268 -223 0
-263 -303 -268 -258 0
-263 -303 -223 -258 0
-263 -268 -223 -258 0
-264 -304 -269 -224 0
-264 -304 -269 -259 0
-264 -304 -224 -259 0
-264 -269 -224 -259 0
-265 -305 -270 -225 0
-265 -305 -270 -260 0
-265 -305 -225 -260 0
-265 -270 -225 -260 0
-266 497 0
-267 498 0
-497 498 0
-497 -267 0
-268 499 0
-498 499 0
-498 -268 0
-269 500 0
-499 500 0
-499 -269 0
-500 -270 0
-266 306 271 226 0
-266 306 271 261 0
-266 306 226 261 0
-266 271 226 261 0
-267 307 272 227 0
-267 307 272 262 0
-267 307 227 262 0
-267 272 227 262 0
-268 308 273 228 0
-268 308 273 263 0
-268 308 228 263 0
-268 273 228 263 0
-269 309 274 229 0
-269 309 274 264 0
-269 309 229 264 0
-269 274 229 264 0
-270 310 275 230 0
-270 310 275 265 0
-270 310 230 265 0
-270 275 230 265 0
-266 -306 -271 -226 0
-266 -306 -271 -261 0
-266 -306 -226 -261 0
-266 -271 -226 -261 0
-267 -307 -272 -227 0
-267 -307 -272 -262 0
-267 -307 -227 -262 0
-267 -272 -227 -262 0
-268 -308 -273 -228 0
-268 -308 -273 -263 0
-268 -308 -228 -263 0
-268 -273 -228 -263 0
-269 -309 -274 -229 0
-269 -309 -274 -264 0
-269 -309 -229 -264 0
-269 -274 -229 -264 0
-270 -310 -275 -230 0
-270 -310 -275 -265 0
-270 -310 -230 -265 0
-270 -275 -230 -265 0
-271 501 0
-272 502 0
-501 502 0
-501 -272 0
-273 503 0
-502 503 0
-502 -273 0
-274 504 0
-503 504 0
-503 -274 0
-504 -275 0
-271 311 276 231 0
-271 311 276 266 0
-271 311 231 266 0
-271 276 231 266 0
-272 312 277 232 0
-272 312 277 267 0
-272 312 232 267 0
-272 277 232 267 0
-273 313 278 233 0
-273 313 278 268 0
-273 313 233 268 0
-273 278 233 268 0
-274 314 279 234 0
-274 314 279 269 0
-274 314 234 269 0
-274 279 234 269 0
-275 315 280 235 0
-275 315 280 270 0
-275 315 235 270 0
-275 280 235 270 0
-271 -311 -276 -231 0
-271 -311 -276 -266 0
-271 -311 -231 -266 0
-271 -276 -231 -266 0
-272 -312 -277 -232 0
-272 -312 -277 -267 0
-272 -312 -232 -267 0
-272 -277 -232 -267 0
-273 -313 -278 -233 0
-273 -313 -278 -268 0
-273 -313 -233 -268 0
-273 -278 -233 -268 0
-274 -314 -279 -234 0
-274 -314 -279 -269 0
-274 -314 -234 -269 0
-274 -279 -234 -269 0
-275 -315 -280 -235 0
-275 -315 -280 -270 0
-275 -315 -235 -270 0
-275 -280 -235 -270 0
-276 505 0
-277 506 0
-505 506 0
-505 -277 0
-278 507 0
-506 507 0
-506 -278 0
-279 508 0
-507 508 0
-507 -279 0
-508 -280 0
-276 316 271 0
-276 316 236 0
-276 271 236 0
-277 317 272 0
-277 317 237 0
-277 272 237 0
-278 318 273 0
-278 318 238 0
-278 273 238 0
-279 319 274 0
-279 319 239 0
-279 274 239 0
-280 320 275 0
-280 320 240 0
-280 275 240 0
-276 -316 -271 -236 0
-277 -317 -272 -237 0
-278 -318 -273 -238 0
-279 -319 -274 -239 0
-280 -320 -275 -240 0
-282 0
-283 0
-284 0
-285 0
281 0
241 286 0
-241 -286 0
-286 509 0
-287 510 0
-509 510 0
-509 -287 0
-288 511 0
-510 511 0
-510 -288 0
-289 512 0
-511 512 0
-511 -289 0
-512 -290 0
-286 246 291 0
-286 246 281 0
-286 291 281 0
-287 247 292 0
-287 247 282 0
-287 292 282 0
-288 248 293 0
-288 248 283 0
-288 293 283 0
-289 249 294 0
-289 249 284 0
-289 294 284 0
-290 250 295 0
-290 250 285 0
-290 295 285 0
-286 -246 -291 -281 0
-287 -247 -292 -282 0
-288 -248 -293 -283 0
-289 -249 -294 -284 0
-290 -250 -295 -285 0
-291 513 0
-292 514 0
-513 514 0
-513 -292 0
-293 515 0
-514 515 0
-514 -293 0
-294 516 0
-515 516 0
-515 -294 0
-516 -295 0
-291 251 296 0
-291 251 286 0
-291 296 286 0
-292 252 297 0
-292 252 287 0
-292 297 287 0
-293 253 298 0
-293 253 288 0
-293 298 288 0
-294 254 299 0
-294 254 289 0
-294 299 289 0
-295 255 300 0
-295 255 290 0
-295 300 290 0
-291 -251 -296 -286 0
-292 -252 -297 -287 0
-293 -253 -298 -288 0
-294 -254 -299 -289 0
-295 -255 -300 -290 0
-296 517 0
-297 518 0
-517 518 0
-517 -297 0
-298 519 0
-518 519 0
-518 -298 0
-299 520 0
-519 520 0
-519 -299 0
-520 -300 0
-296 256 301 0
-296 256 291 0
-296 301 291 0
-297 257 302 0
-297 257 292 0
-297 302 292 0
-298 258 303 0
-298 258 293 0
-298 303 293 0
-299 259 304 0
-299 259 294 0
-299 304 294 0
-300 260 305 0
-300 260 295 0
-300 305 295 0
-296 -256 -301 -291 0
-297 -257 -302 -292 0
-298 -258 -303 -293 0
-299 -259 -304 -294 0
-300 -260 -305 -295 0
-301 521 0
-302 522 0
-521 522 0
-521 -302 0
-303 523 0
-522 523 0
-522 -303 0
-304 524 0
-523 524 0
-523 -304 0
-524 -305 0
-301 261 306 0
-301 261 296 0
-301 306 296 0
-302 262 307 0
-302 262 297 0
-302 307 297 0
-303 263 308 0
-303 263 298 0
-303 308 298 0
-304 264 309 0
-304 264 299 0
-304 309 299 0
-305 265 310 0
-305 265 300 0
-305 310 300 0
-301 -261 -306 -296 0
-302 -262 -307 -297 0
-303 -263 -308 -298 0
-304 -264 -309 -299 0
-305 -265 -310 -300 0
-306 525 0
-307 526 0
-525 526 0
-525 -307 0
-308 527 0
-526 527 0
-526 -308 0
-309 528 0
-527 528 0
-527 -309 0
-528 -310 0
-306 266 311 0
-306 266 301 0
-306 311 301 0
-307 267 312 0
-307 267 302 0
-307 312 302 0
-308 268 313 0
-308 268 303 0
-308 313 303 0
-309 269 314 0
-309 269 304 0
-309 314 304 0
-310 270 315 0
-310 270 305 0
-310 315 305 0
-306 -266 -311 -301 0
-307 -267 -312 -302 0
-308 -268 -313 -303 0
-309 -269 -314 -304 0
-310 -270 -315 -305 0
-311 529 0
-312 530 0
-529 530 0
-529 -312 0
-313 531 0
-530 531 0
-530 -313 0
-314 532 0
-531 532 0
-531 -314 0
-532 -315 0
-311 271 316 0
-311 271 306 0
-311 316 306 0
-312 272 317 0
-312 272 307 0
-312 317 307 0
-313 273 318 0
-313 273 308 0
-313 318 308 0
-314 274 319 0
-314 274 309 0
-314 319 309 0
-315 275 320 0
-315 275 310 0
-315 320 310 0
-311 -271 -316 -306 0
-312 -272 -317 -307 0
-313 -273 -318 -308 0
-314 -274 -319 -309 0
-315 -275 -320 -310 0
-316 533 0
-317 534 0
-533 534 0
-533 -317 0
-318 535 0
-534 535 0
-534 -318 0
-319 536 0
-535 536 0
-535 -319 0
-536 -320 0
-316 276 0
-316 311 0
-317 277 0
-317 312 0
-318 278 0
-318 313 0
-319 279 0
-319 314 0
-320 280 0
-320 315 0
81 86 91 96 101 106 111 116 0
121 126 131 141 146 151 156 0
161 166 181 191 196 0
206 211 216 221 231 236 0
246 256 261 266 271 276 0
207 212 217 222 232 237 0
7 47 87 127 167 207 247 287 0
12 52 92 132 212 292 0
17 57 97 217 257 297 0
22 62 102 142 182 222 262 302 0
163 168 183 193 198 0
23 63 103 143 183 223 263 303 0
9 49 89 129 169 209 249 289 0
14 54 94 134 214 294 0
210 215 220 225 235 240 0